NAME = SAfile175,
TOURSIZE = 175,
LENGTH = 21424,
59,11,173,24,149,70,153,140,99,132,36,21,41,134,85,84,151,104,112,91,71,81,144,80,102,123,167,103,50,105,159,64,53,170,92,48,114,31,69,93,19,120,39,5,26,72,118,49,148,89,46,119,171,110,17,137,2,83,15,62,139,25,9,45,116,133,29,68,166,154,87,7,74,113,38,37,47,82,157,32,172,44,97,136,161,75,108,13,127,101,73,1,131,61,156,79,98,67,117,163,35,16,146,42,6,58,160,100,65,23,168,28,169,147,150,14,57,155,8,125,124,175,60,142,3,30,56,86,76,111,88,90,158,94,135,152,141,54,95,143,130,63,145,96,52,138,115,43,20,109,4,174,162,78,34,165,22,121,12,107,51,106,55,129,40,27,126,164,18,33,122,77,10,66,128